Precision
PREC=HIGH
NBANDS=100
ISIF=3
IBRION=2
NSW=0
ISMEAR=-1
SIGMA=0.1

ENCUT=374